100
120
100
99
99
99
98
97
97
96
96
95
94
94
93
91
89
89
89
87
87
86
85
84
84
84
83
83
83
83
79
79
76
76
75
74
73
73
72
71
71
70
70
70
70
68
67
67
66
64
64
63
62
62
62
62
62
59
58
58
56
56
56
54
54
54
53
53
53
51
51
50
49
49
48
48
48
47
46
46
45
44
43
43
43
42
41
41
41
41
40
39
38
38
38
38
37
36
35
32
31
30
